(set-logic HORN)
(set-info :source |
    Benchmark: Horn constraint system (5 clauses, 4 relation symbols)
    Generated by Eldarica (http://lara.epfl.ch/w/eldarica)
    Output by Princess (http://www.philipp.ruemmer.org/princess.shtml)
|)
(set-info :status sat)
(declare-fun predh14_1 (Int Int Int Int Int Int Int Int Int Int Int Int Int Int Int Int Int Int Int Int Int Int Int Int Int Int Int Int Int Int Int Int Int Int Int Int) Bool)
(declare-fun predh5_2 (Int Int Int Int Int Int Int Int Int Int Int Int Int Int Int Int Int Int Int Int Int Int Int Int Int Int Int Int Int Int Int Int Int Int Int Int) Bool)
(declare-fun predh14_3 (Int Int Int Int Int Int Int Int Int Int Int Int Int Int Int Int Int Int Int Int Int Int Int Int Int Int Int Int Int Int Int Int Int Int Int Int) Bool)
(declare-fun predh5_4 (Int Int Int Int Int Int Int Int Int Int Int Int Int Int Int Int Int Int Int Int Int Int Int Int Int Int Int Int Int Int Int Int Int Int Int Int) Bool)
(assert (forall ((var0 Int)) (forall ((var1 Int)) (forall ((var2 Int)) (forall ((var3 Int)) (forall ((var4 Int)) (forall ((var5 Int)) (forall ((var6 Int)) (forall ((var7 Int)) (forall ((var8 Int)) (forall ((var9 Int)) (forall ((var10 Int)) (forall ((var11 Int)) (forall ((var12 Int)) (forall ((var13 Int)) (forall ((var14 Int)) (forall ((var15 Int)) (forall ((var16 Int)) (forall ((var17 Int)) (forall ((var18 Int)) (forall ((var19 Int)) (forall ((var20 Int)) (forall ((var21 Int)) (forall ((var22 Int)) (forall ((var23 Int)) (forall ((var24 Int)) (forall ((var25 Int)) (forall ((var26 Int)) (forall ((var27 Int)) (forall ((var28 Int)) (forall ((var29 Int)) (forall ((var30 Int)) (forall ((var31 Int)) (forall ((var32 Int)) (forall ((var33 Int)) (forall ((var34 Int)) (forall ((var35 Int)) (not (and (and (and (and (and (and (and (and (and (<= 0 (+ (+ var15 (* (- 1) var6 ) ) (* (- 1) 1 ) ) ) (<= 0 (+ (* (- 1) var14 ) var6 ) ) ) (<= 0 (+ var13 (* (- 1) var6 ) ) ) ) (<= 0 (+ (* (- 1) var12 ) var5 ) ) ) (<= 0 (+ (+ (* (- 1) var11 ) var5 ) (* (- 1) 1 ) ) ) ) (<= 0 (+ (+ (* (- 1) var10 ) var6 ) (* (- 1) 1 ) ) ) ) (<= 0 (+ (+ var9 (* (- 1) var6 ) ) (* (- 1) 1 ) ) ) ) (<= 0 (+ (+ (* (- 1) var8 ) var5 ) (* (- 1) 1 ) ) ) ) (<= 0 (+ (+ var7 (* (- 1) var5 ) ) (* (- 1) 1 ) ) ) ) (predh14_1 var35 var34 var33 var32 var31 var30 var29 var28 var27 var26 var25 var24 var23 var22 var21 var20 var19 var18 var17 var16 var15 var14 var13 var12 var11 var10 var9 var8 var7 var6 var5 var4 var3 var2 var1 var0 ) ) ) ) ) ) ) ) ) ) ) ) ) ) ) ) ) ) ) ) ) ) ) ) ) ) ) ) ) ) ) ) ) ) ) ) ) ) ) )
(assert (forall ((var0 Int)) (forall ((var1 Int)) (forall ((var2 Int)) (forall ((var3 Int)) (forall ((var4 Int)) (forall ((var5 Int)) (forall ((var6 Int)) (forall ((var7 Int)) (forall ((var8 Int)) (forall ((var9 Int)) (forall ((var10 Int)) (forall ((var11 Int)) (forall ((var12 Int)) (forall ((var13 Int)) (forall ((var14 Int)) (forall ((var15 Int)) (forall ((var16 Int)) (forall ((var17 Int)) (forall ((var18 Int)) (forall ((var19 Int)) (forall ((var20 Int)) (forall ((var21 Int)) (forall ((var22 Int)) (forall ((var23 Int)) (forall ((var24 Int)) (forall ((var25 Int)) (forall ((var26 Int)) (forall ((var27 Int)) (forall ((var28 Int)) (forall ((var29 Int)) (forall ((var30 Int)) (forall ((var31 Int)) (forall ((var32 Int)) (forall ((var33 Int)) (forall ((var34 Int)) (forall ((var35 Int)) (not (and (<= 0 (+ (+ var15 (* (- 1) var5 ) ) (* (- 1) 1 ) ) ) (and (predh5_2 var35 var34 var33 var32 var31 var30 var29 var28 var27 var26 var25 var24 var23 var22 var21 var20 var19 var18 var17 var16 var15 var14 var13 var12 var11 var10 var9 var8 var7 var6 var5 var4 var3 var2 var1 var0 ) (not (predh14_1 var35 var34 var33 var32 var31 var30 var29 var28 var27 var26 var25 var24 var23 var22 var21 var20 var19 var18 var17 var16 var15 var14 var13 var12 var11 var10 var9 var8 var7 (* 2 1 ) var5 var4 var3 var2 var1 var0 ) ) ) ) ) ) ) ) ) ) ) ) ) ) ) ) ) ) ) ) ) ) ) ) ) ) ) ) ) ) ) ) ) ) ) ) ) ) ) ) ) )
(assert (forall ((var0 Int)) (forall ((var1 Int)) (forall ((var2 Int)) (forall ((var3 Int)) (forall ((var4 Int)) (forall ((var5 Int)) (forall ((var6 Int)) (forall ((var7 Int)) (forall ((var8 Int)) (forall ((var9 Int)) (forall ((var10 Int)) (forall ((var11 Int)) (forall ((var12 Int)) (forall ((var13 Int)) (forall ((var14 Int)) (forall ((var15 Int)) (forall ((var16 Int)) (forall ((var17 Int)) (forall ((var18 Int)) (forall ((var19 Int)) (forall ((var20 Int)) (forall ((var21 Int)) (forall ((var22 Int)) (forall ((var23 Int)) (forall ((var24 Int)) (forall ((var25 Int)) (forall ((var26 Int)) (forall ((var27 Int)) (forall ((var28 Int)) (forall ((var29 Int)) (forall ((var30 Int)) (forall ((var31 Int)) (forall ((var32 Int)) (forall ((var33 Int)) (forall ((var34 Int)) (forall ((var35 Int)) (not (and (<= 0 (+ (* (- 1) var15 ) var6 ) ) (and (predh14_3 var35 var34 var33 var32 var31 var30 var29 var28 var27 var26 var25 var24 var23 var22 var21 var20 var19 var18 var17 var16 var15 var14 var13 var12 var11 var10 var9 var8 var7 var6 var5 var4 var3 var2 var1 var0 ) (not (predh5_2 var35 var34 var33 var32 var31 var30 var29 var28 var27 var26 var25 var24 var23 var22 var21 var20 var19 var18 var17 var16 var15 var14 var13 var12 var11 var10 var9 var8 var7 var6 (+ var5 1 ) var4 var3 var2 var1 var0 ) ) ) ) ) ) ) ) ) ) ) ) ) ) ) ) ) ) ) ) ) ) ) ) ) ) ) ) ) ) ) ) ) ) ) ) ) ) ) ) ) )
(assert (forall ((var0 Int)) (forall ((var1 Int)) (forall ((var2 Int)) (forall ((var3 Int)) (forall ((var4 Int)) (forall ((var5 Int)) (forall ((var6 Int)) (forall ((var7 Int)) (forall ((var8 Int)) (forall ((var9 Int)) (forall ((var10 Int)) (forall ((var11 Int)) (forall ((var12 Int)) (forall ((var13 Int)) (forall ((var14 Int)) (forall ((var15 Int)) (forall ((var16 Int)) (forall ((var17 Int)) (forall ((var18 Int)) (forall ((var19 Int)) (forall ((var20 Int)) (forall ((var21 Int)) (forall ((var22 Int)) (forall ((var23 Int)) (forall ((var24 Int)) (forall ((var25 Int)) (forall ((var26 Int)) (forall ((var27 Int)) (forall ((var28 Int)) (forall ((var29 Int)) (forall ((var30 Int)) (forall ((var31 Int)) (forall ((var32 Int)) (forall ((var33 Int)) (forall ((var34 Int)) (forall ((var35 Int)) (not (and (<= 0 (+ (+ var15 (* (- 1) var5 ) ) (* (- 1) 1 ) ) ) (and (predh5_4 var35 var34 var33 var32 var31 var30 var29 var28 var27 var26 var25 var24 var23 var22 var21 var20 var19 var18 var17 var16 var15 var14 var13 var12 var11 var10 var9 var8 var7 var6 var5 var4 var3 var2 var1 var0 ) (not (predh14_3 var35 var34 var33 var32 var31 var30 var29 var28 var27 var26 var25 var24 var23 var22 var21 var20 var19 var18 var17 var16 var15 var14 var13 var12 var11 var10 var9 var8 var7 (* 2 1 ) var5 var4 var3 var2 var1 var0 ) ) ) ) ) ) ) ) ) ) ) ) ) ) ) ) ) ) ) ) ) ) ) ) ) ) ) ) ) ) ) ) ) ) ) ) ) ) ) ) ) )
(assert (forall ((var0 Int)) (forall ((var1 Int)) (forall ((var2 Int)) (forall ((var3 Int)) (forall ((var4 Int)) (forall ((var5 Int)) (forall ((var6 Int)) (forall ((var7 Int)) (forall ((var8 Int)) (forall ((var9 Int)) (forall ((var10 Int)) (forall ((var11 Int)) (forall ((var12 Int)) (forall ((var13 Int)) (forall ((var14 Int)) (forall ((var15 Int)) (forall ((var16 Int)) (forall ((var17 Int)) (forall ((var18 Int)) (forall ((var19 Int)) (predh5_4 var8 var7 var6 var19 var18 var17 var16 var15 var14 var13 var12 var5 var11 var10 var9 var2 var1 var0 var8 var7 var6 1 var6 1 var6 1 var6 1 var6 var5 (* 2 1 ) var4 var3 var2 var1 var0 ) ) ) ) ) ) ) ) ) ) ) ) ) ) ) ) ) ) ) ) ) )
(check-sat)
